
Gurobi 7.0.1 (win64) logging started 03/11/17 14:43:12

Optimize a model with 35 rows, 198058 columns and 2323636 nonzeros
Variable types: 0 continuous, 198058 integer (198058 binary)
Coefficient statistics:
  Matrix range     [2e-09, 4e+07]
  Objective range  [3e+00, 1e+08]
  Bounds range     [1e+00, 1e+00]
  RHS range        [1e+03, 2e+04]
Warning: Model contains large matrix coefficient range
         Consider reformulating model or setting NumericFocus parameter
         to avoid numerical issues.
Found heuristic solution: objective 4.66546e+09
Presolve removed 34 rows and 2349 columns
Presolve time: 0.78s
Presolved: 1 rows, 195709 columns, 195709 nonzeros
Variable types: 0 continuous, 195709 integer (195706 binary)
Presolve removed 0 rows and 2 columns
Presolved: 1 rows, 195707 columns, 195707 nonzeros


Root relaxation: objective 9.550761e+07, 1 iterations, 0.31 seconds

    Nodes    |    Current Node    |     Objective Bounds      |     Work
 Expl Unexpl |  Obj  Depth IntInf | Incumbent    BestBd   Gap | It/Node Time

     0     0 9.5508e+07    0    1 4.6655e+09 9.5508e+07  98.0%     -    1s
H    0     0                    9.555692e+07 9.5508e+07  0.05%     -    1s
H    0     0                    9.551324e+07 9.5508e+07  0.01%     -    2s

Explored 0 nodes (1 simplex iterations) in 2.05 seconds
Thread count was 8 (of 8 available processors)

Solution count 3: 9.55132e+07 9.55569e+07 4.66546e+09 
Pool objective bound 9.55076e+07

Optimal solution found (tolerance 1.00e-04)
Best objective 9.551323676302e+07, best bound 9.550760507800e+07, gap 0.0059%

Gurobi 7.0.1 (win64) logging started 03/11/17 15:05:25

Optimize a model with 35 rows, 198058 columns and 2323636 nonzeros
Variable types: 0 continuous, 198058 integer (198058 binary)
Coefficient statistics:
  Matrix range     [2e-09, 4e+07]
  Objective range  [3e+00, 1e+08]
  Bounds range     [1e+00, 1e+00]
  RHS range        [1e+03, 4e+04]
Warning: Model contains large matrix coefficient range
         Consider reformulating model or setting NumericFocus parameter
         to avoid numerical issues.
Found heuristic solution: objective 8.9585e+09
Presolve removed 34 rows and 2349 columns
Presolve time: 0.67s
Presolved: 1 rows, 195709 columns, 195709 nonzeros
Variable types: 0 continuous, 195709 integer (195706 binary)
Presolve removed 0 rows and 2 columns
Presolved: 1 rows, 195707 columns, 195707 nonzeros

Extra one simplex iteration after uncrush

Root relaxation: objective 3.583715e+08, 2 iterations, 0.25 seconds

    Nodes    |    Current Node    |     Objective Bounds      |     Work
 Expl Unexpl |  Obj  Depth IntInf | Incumbent    BestBd   Gap | It/Node Time

     0     0 3.5837e+08    0    1 8.9585e+09 3.5837e+08  96.0%     -    1s
H    0     0                    3.584146e+08 3.5837e+08  0.01%     -    1s
H    0     0                    3.583937e+08 3.5837e+08  0.01%     -    1s

Explored 0 nodes (2 simplex iterations) in 1.84 seconds
Thread count was 8 (of 8 available processors)

Solution count 3: 3.58394e+08 3.58415e+08 8.9585e+09 
Pool objective bound 3.58371e+08

Optimal solution found (tolerance 1.00e-04)
Best objective 3.583937353841e+08, best bound 3.583714957086e+08, gap 0.0062%

Gurobi 7.0.1 (win64) logging started 03/11/17 15:05:28

Optimize a model with 34 rows, 198058 columns and 2322448 nonzeros
Variable types: 0 continuous, 198058 integer (198058 binary)
Coefficient statistics:
  Matrix range     [2e-09, 4e+07]
  Objective range  [3e+00, 1e+08]
  Bounds range     [1e+00, 1e+00]
  RHS range        [4e+04, 4e+04]
Warning: Model contains large matrix coefficient range
         Consider reformulating model or setting NumericFocus parameter
         to avoid numerical issues.
Found heuristic solution: objective 1.63506e+10
Presolve removed 32 rows and 1269 columns
Presolve time: 0.64s
Presolved: 2 rows, 196789 columns, 284183 nonzeros
Variable types: 0 continuous, 196789 integer (196786 binary)
Presolve removed 0 rows and 2 columns
Presolved: 2 rows, 196787 columns, 284181 nonzeros


Starting sifting (using dual simplex for sub-problems)...

    Iter     Pivots    Primal Obj      Dual Obj        Time
       0          0     infinity      0.0000000e+00      1s
       1          1   2.8386359e+16   3.5810529e+07      1s
       2          3   2.8369437e+16   4.7283242e+07      1s
       3          5   2.8353809e+16   5.7788458e+07      1s
       4          7   2.8332396e+16   6.2066287e+07      1s
       5          9   2.8312514e+16   6.2341465e+07      1s
       6         11   2.8301021e+16   6.2871377e+07      1s
       7         13   2.8266517e+16   6.7175409e+07      1s
       8         15   2.8253296e+16   7.1474989e+07      1s
       9         17   2.8240848e+16   7.2130891e+07      1s
      10         19   2.8230324e+16   7.2601762e+07      1s
      11         21   2.8208486e+16   7.3801739e+07      1s
      12         23   2.8163091e+16   8.3086312e+07      1s
      13         25   2.8111104e+16   8.5969917e+07      1s
      14         27   2.8102507e+16   8.6865131e+07      1s
      15         29   2.8066146e+16   8.9115430e+07      1s
      16         31   2.8014676e+16   9.4617868e+07      1s
      17         33   2.7965962e+16   1.0010469e+08      1s
      18         35   2.7935636e+16   1.0086502e+08      1s
      19         37   2.7893710e+16   1.0286932e+08      2s
      20         39   2.7872603e+16   1.0435400e+08      2s
      21         41   2.7836642e+16   1.0918181e+08      2s
      22         43   2.7810169e+16   1.1529084e+08      2s
      23         45   2.7763181e+16   1.1920975e+08      2s
      24         47   2.7709700e+16   1.2593937e+08      2s
      25         49   2.7679285e+16   1.3185785e+08      2s
      26         51   2.7667325e+16   1.3410975e+08      2s
      27         53   2.7627085e+16   1.3679512e+08      2s
      28         55   2.7598901e+16   1.3875916e+08      2s
      29         57   2.7550866e+16   1.4114500e+08      2s
      30         59   2.7397903e+16   1.4584848e+08      2s
      31         61   2.7305573e+16   1.5251333e+08      2s
      32         63   2.7238473e+16   1.5979325e+08      2s
      33         65   2.7121079e+16   1.6230974e+08      2s
      34         67   2.7081218e+16   1.6676575e+08      2s
      35         69   2.7058055e+16   1.6760072e+08      2s
      36         71   2.6973891e+16   1.6829046e+08      2s
      37         73   2.6918940e+16   1.7726991e+08      2s
      38         75   2.6872732e+16   1.8359173e+08      2s
      39         77   2.6820543e+16   1.8798210e+08      2s
      40         79   2.6735057e+16   1.8909210e+08      2s
      41         81   2.6731030e+16   1.8992346e+08      2s
      42         83   2.6666437e+16   1.9558671e+08      2s
      43         85   2.6662038e+16   1.9699584e+08      3s
      44         87   2.6617744e+16   2.0233294e+08      3s
      45         89   2.6586928e+16   2.0291159e+08      3s
      46         91   2.6564552e+16   2.0706207e+08      3s
      47         93   2.6535576e+16   2.1011612e+08      3s
      48         95   2.6484568e+16   2.1058348e+08      3s
      49         97   2.6159312e+16   2.1197140e+08      3s

Sifting complete


Root relaxation: objective 7.552653e+08, 100 iterations, 2.07 seconds

    Nodes    |    Current Node    |     Objective Bounds      |     Work
 Expl Unexpl |  Obj  Depth IntInf | Incumbent    BestBd   Gap | It/Node Time

     0     0 7.5527e+08    0    1 1.6351e+10 7.5527e+08  95.4%     -    3s
H    0     0                    7.554164e+08 7.5527e+08  0.02%     -    3s
H    0     0                    7.552910e+08 7.5527e+08  0.00%     -    3s

Explored 0 nodes (100 simplex iterations) in 3.85 seconds
Thread count was 8 (of 8 available processors)

Solution count 3: 7.55291e+08 7.55416e+08 1.63506e+10 
Pool objective bound 7.55265e+08

Optimal solution found (tolerance 1.00e-04)
Best objective 7.552909676013e+08, best bound 7.552652857293e+08, gap 0.0034%

Gurobi 7.0.1 (win64) logging started 03/21/17 20:18:55

Optimize a model with 35 rows, 198058 columns and 2509827 nonzeros
Variable types: 0 continuous, 198058 integer (198058 binary)
Coefficient statistics:
  Matrix range     [2e-09, 4e+07]
  Objective range  [3e+00, 1e+08]
  Bounds range     [1e+00, 1e+00]
  RHS range        [1e+04, 1e+04]
Warning: Model contains large matrix coefficient range
         Consider reformulating model or setting NumericFocus parameter
         to avoid numerical issues.
Found heuristic solution: objective 1.69008e+09
Presolve removed 34 rows and 187531 columns
Presolve time: 0.25s
Presolved: 1 rows, 10527 columns, 10527 nonzeros
Variable types: 0 continuous, 10527 integer (10527 binary)
Presolved: 1 rows, 10527 columns, 10527 nonzeros


Root relaxation: objective 1.401549e+08, 1 iterations, 0.02 seconds

    Nodes    |    Current Node    |     Objective Bounds      |     Work
 Expl Unexpl |  Obj  Depth IntInf | Incumbent    BestBd   Gap | It/Node Time

     0     0 1.4015e+08    0    1 1.6901e+09 1.4015e+08  91.7%     -    0s
H    0     0                    1.402615e+08 1.4015e+08  0.08%     -    0s
H    0     0                    1.401719e+08 1.4015e+08  0.01%     -    0s
H    0     0                    1.401649e+08 1.4015e+08  0.01%     -    0s

Explored 0 nodes (1 simplex iterations) in 0.40 seconds
Thread count was 8 (of 8 available processors)

Solution count 4: 1.40165e+08 1.40172e+08 1.40262e+08 1.69008e+09 
Pool objective bound 1.40155e+08

Optimal solution found (tolerance 1.00e-04)
Best objective 1.401649136464e+08, best bound 1.401548982025e+08, gap 0.0071%

Gurobi 7.0.1 (win64) logging started 03/21/17 20:20:00

Optimize a model with 35 rows, 198058 columns and 2508908 nonzeros
Variable types: 0 continuous, 198058 integer (198058 binary)
Coefficient statistics:
  Matrix range     [2e-09, 4e+07]
  Objective range  [3e+00, 1e+08]
  Bounds range     [1e+00, 1e+00]
  RHS range        [2e+04, 2e+04]
Warning: Model contains large matrix coefficient range
         Consider reformulating model or setting NumericFocus parameter
         to avoid numerical issues.
Found heuristic solution: objective 5.04711e+09
Presolve removed 34 rows and 186638 columns
Presolve time: 0.28s
Presolved: 1 rows, 11420 columns, 11420 nonzeros
Variable types: 0 continuous, 11420 integer (11420 binary)
Presolved: 1 rows, 11420 columns, 11420 nonzeros


Root relaxation: objective 3.674667e+08, 1 iterations, 0.01 seconds

    Nodes    |    Current Node    |     Objective Bounds      |     Work
 Expl Unexpl |  Obj  Depth IntInf | Incumbent    BestBd   Gap | It/Node Time

     0     0 3.6747e+08    0    1 5.0471e+09 3.6747e+08  92.7%     -    0s
H    0     0                    3.681004e+08 3.6747e+08  0.17%     -    0s
H    0     0                    3.675326e+08 3.6747e+08  0.02%     -    0s
H    0     0                    3.674792e+08 3.6747e+08  0.00%     -    0s

Explored 0 nodes (1 simplex iterations) in 0.44 seconds
Thread count was 8 (of 8 available processors)

Solution count 4: 3.67479e+08 3.67533e+08 3.681e+08 5.04711e+09 
Pool objective bound 3.67467e+08

Optimal solution found (tolerance 1.00e-04)
Best objective 3.674792114337e+08, best bound 3.674667331046e+08, gap 0.0034%

Gurobi 7.0.1 (win64) logging started 03/21/17 20:20:01

Optimize a model with 35 rows, 198058 columns and 2332123 nonzeros
Variable types: 0 continuous, 198058 integer (198058 binary)
Coefficient statistics:
  Matrix range     [2e-09, 4e+07]
  Objective range  [3e+00, 1e+08]
  Bounds range     [1e+00, 1e+00]
  RHS range        [2e+04, 2e+04]
Warning: Model contains large matrix coefficient range
         Consider reformulating model or setting NumericFocus parameter
         to avoid numerical issues.
Found heuristic solution: objective 8.59336e+09
Presolve removed 33 rows and 10944 columns
Presolve time: 0.65s
Presolved: 2 rows, 187114 columns, 267773 nonzeros
Variable types: 0 continuous, 187114 integer (187111 binary)
Presolve removed 0 rows and 2 columns
Presolved: 2 rows, 187112 columns, 267771 nonzeros


Starting sifting (using dual simplex for sub-problems)...

    Iter     Pivots    Primal Obj      Dual Obj        Time
       0          0     infinity      0.0000000e+00      1s
       1          1   1.8902405e+16   2.3873682e+07      1s
       2          3   1.8885483e+16   3.1518102e+07      1s
       3          5   1.8869855e+16   3.8515843e+07      1s
       4          7   1.8848441e+16   4.1364409e+07      1s
       5          9   1.8828560e+16   4.1547577e+07      1s
       6         11   1.8817067e+16   4.1900232e+07      1s
       7         13   1.8782563e+16   4.4762790e+07      1s
       8         15   1.8769341e+16   4.7621701e+07      1s
       9         17   1.8756893e+16   4.8057732e+07      1s
      10         19   1.8746370e+16   4.8370698e+07      1s
      11         21   1.8724531e+16   4.9167959e+07      1s
      12         23   1.8679143e+16   5.5332065e+07      1s
      13         25   1.8627175e+16   5.7245281e+07      1s
      14         27   1.8618559e+16   5.7839039e+07      1s
      15         29   1.8582198e+16   5.9330448e+07      1s
      16         31   1.8530775e+16   6.2973010e+07      1s
      17         33   1.8482058e+16   6.6602056e+07      1s
      18         35   1.8451735e+16   6.7104764e+07      1s
      19         37   1.8409806e+16   6.8428601e+07      2s
      20         39   1.8388661e+16   6.9408786e+07      2s
      21         41   1.8361393e+16   7.1321630e+07      2s
      22         43   1.8352497e+16   7.2594309e+07      2s
      23         45   1.8326104e+16   7.6622864e+07      2s
      24         47   1.8279239e+16   7.9205467e+07      2s
      25         49   1.8225889e+16   8.3635496e+07      2s
      26         51   1.8199597e+16   8.7529415e+07      2s
      27         53   1.8187244e+16   8.9010429e+07      2s
      28         55   1.8147415e+16   9.0775393e+07      2s
      29         57   1.8119223e+16   9.2065720e+07      2s
      30         59   1.8071229e+16   9.3631449e+07      2s
      31         61   1.7918216e+16   9.6709699e+07      2s
      32         63   1.7825908e+16   1.0106395e+08      2s
      33         65   1.7758799e+16   1.0581385e+08      2s
      34         67   1.7641416e+16   1.0745221e+08      2s
      35         69   1.7601540e+16   1.1035039e+08      2s
      36         71   1.7578813e+16   1.1089326e+08      2s
      37         73   1.7439934e+16   1.1716190e+08      2s
      38         75   1.7393767e+16   1.2125747e+08      2s
      39         77   1.7341579e+16   1.2409875e+08      2s
      40         79   1.7252496e+16   1.2481597e+08      2s
      41         81   1.7252106e+16   1.2535302e+08      2s
      42         83   1.7187518e+16   1.2991455e+08      2s
      43         85   1.7142748e+16   1.3335391e+08      2s
      44         87   1.7089910e+16   1.3372669e+08      3s
      45         89   1.7089529e+16   1.3639946e+08      3s
      46         91   1.7060507e+16   1.3836441e+08      3s
      47         93   1.7009702e+16   1.3866485e+08      3s
      48         95   1.6684254e+16   1.3955094e+08      3s
      49         97   1.6555787e+16   1.4029114e+08      3s

Sifting complete


Root relaxation: objective 3.566835e+08, 100 iterations, 2.03 seconds

    Nodes    |    Current Node    |     Objective Bounds      |     Work
 Expl Unexpl |  Obj  Depth IntInf | Incumbent    BestBd   Gap | It/Node Time

     0     0 3.5668e+08    0    1 8.5934e+09 3.5668e+08  95.8%     -    3s
H    0     0                    3.566906e+08 3.5668e+08  0.00%     -    3s

Explored 0 nodes (100 simplex iterations) in 3.43 seconds
Thread count was 8 (of 8 available processors)

Solution count 2: 3.56691e+08 8.59336e+09 
Pool objective bound 3.56684e+08

Optimal solution found (tolerance 1.00e-04)
Best objective 3.566905896299e+08, best bound 3.566835340452e+08, gap 0.0020%

Gurobi 7.0.1 (win64) logging started 03/21/17 20:20:05

Optimize a model with 35 rows, 198058 columns and 2340752 nonzeros
Variable types: 0 continuous, 198058 integer (198058 binary)
Coefficient statistics:
  Matrix range     [2e-09, 4e+07]
  Objective range  [3e+00, 1e+08]
  Bounds range     [1e+00, 1e+00]
  RHS range        [2e+04, 2e+04]
Warning: Model contains large matrix coefficient range
         Consider reformulating model or setting NumericFocus parameter
         to avoid numerical issues.
Found heuristic solution: objective 7.06404e+09
Presolve removed 33 rows and 19514 columns
Presolve time: 0.63s
Presolved: 2 rows, 178544 columns, 253733 nonzeros
Variable types: 0 continuous, 178544 integer (178541 binary)
Presolve removed 0 rows and 2 columns
Presolved: 2 rows, 178542 columns, 253731 nonzeros


Starting sifting (using dual simplex for sub-problems)...

    Iter     Pivots    Primal Obj      Dual Obj        Time
       0          0     infinity      0.0000000e+00      1s
       1          1   1.8900618e+16   2.3873682e+07      1s
       2          3   1.8883696e+16   3.1518102e+07      1s
       3          5   1.8868068e+16   3.8515843e+07      1s
       4          7   1.8855717e+16   4.1364409e+07      1s
       5          9   1.8824317e+16   4.1900232e+07      1s
       6         11   1.8789813e+16   4.4762790e+07      1s
       7         13   1.8776617e+16   4.7621701e+07      1s
       8         15   1.8764169e+16   4.8057732e+07      1s
       9         17   1.8753646e+16   4.8370698e+07      1s
      10         19   1.8731807e+16   4.9167959e+07      1s
      11         21   1.8706347e+16   5.0659427e+07      1s
      12         23   1.8686410e+16   5.5332083e+07      1s
      13         25   1.8634426e+16   5.7245328e+07      1s
      14         27   1.8589562e+16   5.9330526e+07      1s
      15         29   1.8538536e+16   6.2973143e+07      1s
      16         31   1.8489833e+16   6.6602382e+07      1s
      17         33   1.8417871e+16   6.8429394e+07      1s
      18         35   1.8387778e+16   6.9409831e+07      1s
      19         37   1.8360744e+16   7.2596175e+07      1s
      20         39   1.8329159e+16   7.7424186e+07      2s
      21         41   1.8266180e+16   7.9209223e+07      2s
      22         43   1.8234046e+16   8.3640917e+07      2s
      23         45   1.8207647e+16   8.7536301e+07      2s
      24         47   1.8189955e+16   8.9017874e+07      2s
      25         49   1.8155796e+16   9.0783504e+07      2s
      26         51   1.8127198e+16   9.2074318e+07      2s
      27         53   1.8079172e+16   9.3640642e+07      2s
      28         55   1.7926201e+16   9.6720068e+07      2s
      29         57   1.7847587e+16   1.0107835e+08      2s
      30         59   1.7793286e+16   1.0583634e+08      2s
      31         61   1.7682303e+16   1.0747779e+08      2s
      32         63   1.7642451e+16   1.1038206e+08      2s
      33         65   1.7619869e+16   1.1092615e+08      2s
      34         67   1.7481044e+16   1.1720904e+08      2s
      35         69   1.7436067e+16   1.2157998e+08      2s
      36         71   1.7393083e+16   1.2416433e+08      2s
      37         73   1.7303922e+16   1.2542225e+08      2s
      38         75   1.7239154e+16   1.2999717e+08      2s
      39         77   1.7194982e+16   1.3344667e+08      2s
      40         79   1.7142219e+16   1.3382055e+08      2s
      41         81   1.7141828e+16   1.3650121e+08      2s
      42         83   1.7119965e+16   1.3847198e+08      2s
      43         85   1.7060157e+16   1.3877331e+08      2s
      44         87   1.6734913e+16   1.3966208e+08      2s
      45         89   1.6595643e+16   1.4250935e+08      2s
      46         91   1.6497114e+16   1.4370576e+08      3s
      47         93   1.6447175e+16   1.4502762e+08      3s
      48         95   1.6367537e+16   1.5167686e+08      3s
      49         97   1.6343809e+16   1.5374100e+08      3s

Sifting complete


Root relaxation: objective 3.671180e+08, 100 iterations, 1.96 seconds

    Nodes    |    Current Node    |     Objective Bounds      |     Work
 Expl Unexpl |  Obj  Depth IntInf | Incumbent    BestBd   Gap | It/Node Time

     0     0 3.6712e+08    0    1 7.0640e+09 3.6712e+08  94.8%     -    2s
H    0     0                    3.672433e+08 3.6712e+08  0.03%     -    3s
H    0     0                    3.671367e+08 3.6712e+08  0.01%     -    3s

Explored 0 nodes (100 simplex iterations) in 3.64 seconds
Thread count was 8 (of 8 available processors)

Solution count 3: 3.67137e+08 3.67243e+08 7.06404e+09 
Pool objective bound 3.67118e+08

Optimal solution found (tolerance 1.00e-04)
Best objective 3.671367392145e+08, best bound 3.671179581265e+08, gap 0.0051%
